Route #1: 6 33 73 62 1 63 16 3 44 51 17
Route #2: 40 39 72 31 65 38 10 58 12
Route #3: 35 14 59 66 11 53 7
Route #4: 26 9 32 50 25 55 18 24
Route #5: 49 23 56 41 43 42 64 22 28 2
Route #6: 75 68 48 47 36 5 29 45 4
Route #7: 30 74 21 61 69 71 60 70 20 37 15 57 13
Route #8: 34 52 27 54 19 8 46 67
Cost 787